p tw 113 126
1 2
2 26
3 14
4 5
5 6
6 7
7 8
8 9
9 10
10 11
11 12
12 13
13 15
14 18
15 16
16 17
18 19
19 20
19 46
20 21
21 22
22 23
23 24
24 25
24 31
25 27
26 37
27 28
27 43
28 29
29 30
29 34
30 48
31 32
32 33
33 48
34 35
35 36
36 38
37 48
38 39
38 48
39 40
40 41
41 42
42 48
43 44
44 45
45 48
46 47
47 49
48 59
49 50
50 51
51 52
52 53
53 54
54 55
55 56
56 57
57 58
58 60
58 67
59 70
60 61
61 62
62 63
63 64
64 65
65 66
66 67
67 68
68 69
69 71
70 81
71 72
72 73
73 74
74 75
75 76
76 77
77 78
78 79
79 80
79 112
80 82
81 92
81 46
82 83
83 84
84 85
85 86
86 87
87 88
88 89
89 90
90 91
90 95
91 93
92 103
93 94
94 95
94 98
95 96
96 97
96 106
97 69
98 99
99 100
100 101
100 102
101 102
101 69
102 104
103 3
104 105
105 106
106 107
107 108
108 109
109 110
109 84
110 111
111 69
112 113
113 4
